
Welcome to IBM(R) ILOG(R) CPLEX(R) Interactive Optimizer 22.1.1.0
  with Simplex, Mixed Integer & Barrier Optimizers
5725-A06 5725-A29 5724-Y48 5724-Y49 5724-Y54 5724-Y55 5655-Y21
Copyright IBM Corp. 1988, 2022.  All Rights Reserved.

Type 'help' for a list of available commands.
Type 'help' followed by a command name for more
information on commands.

CPLEX> Selected objective sense:  MINIMIZE
Selected objective  name:  00000000
Selected RHS        name:  RHS1
Selected bound      name:  BOUND
Problem 'ee.mps' read.
Read time = 0.02 sec. (3.14 ticks)
CPLEX> New value for time limit in seconds: 7200
CPLEX> New value for parallel optimization mode: -1
CPLEX> New value for default parallel thread count: 40
CPLEX> New value for mixed integer optimality gap tolerance: 1e-13
CPLEX> Version identifier: 22.1.1.0 | 2022-11-28 | 9160aff4d
CPXPARAM_Threads                                 40
CPXPARAM_Parallel                                -1
CPXPARAM_TimeLimit                               7200
CPXPARAM_MIP_Tolerances_MIPGap                   1e-13
Found incumbent of value 0.000000 after 0.00 sec. (0.31 ticks)
Tried aggregator 2 times.
MIP Presolve eliminated 519 rows and 3608 columns.
MIP Presolve modified 5664 coefficients.
Aggregator did 785 substitutions.
Reduced MIP has 3215 rows, 6810 columns, and 25107 nonzeros.
Reduced MIP has 6810 binaries, 0 generals, 0 SOSs, and 0 indicators.
Presolve time = 0.06 sec. (67.17 ticks)
Probing time = 0.03 sec. (5.11 ticks)
Tried aggregator 1 time.
Detecting symmetries...
Reduced MIP has 3215 rows, 6810 columns, and 25107 nonzeros.
Reduced MIP has 6810 binaries, 0 generals, 0 SOSs, and 0 indicators.
Presolve time = 0.02 sec. (19.08 ticks)
Probing time = 0.02 sec. (4.93 ticks)
Clique table members: 16290.
MIP emphasis: balance optimality and feasibility.
MIP search method: dynamic search.
Parallel mode: opportunistic, using up to 40 threads.
Root relaxation solution time = 0.04 sec. (39.84 ticks)

        Nodes                                         Cuts/
   Node  Left     Objective  IInf  Best Integer    Best Bound    ItCnt     Gap

*     0+    0                            0.0000  -1.31000e+13              --- 
*     0+    0                      -3.19000e+12  -1.31000e+13           310.66%
*     0+    0                      -4.40000e+12  -1.31000e+13           197.73%
*     0+    0                      -5.50000e+12  -1.31000e+13           138.18%
*     0+    0                      -6.60000e+12  -1.31000e+13            98.48%
      0     0  -1.30900e+13    22  -6.60000e+12  -1.30900e+13     1162   98.33%
*     0+    0                      -1.30900e+13  -1.30900e+13             0.00%
      0     0  -1.30900e+13    95  -1.30900e+13      Cuts: 41     1459    0.00%
*     0+    0                      -1.30900e+13  -1.30900e+13             0.00%
      0     0  -1.30900e+13    83  -1.30900e+13      Cuts: 51     1722    0.00%
      0     0  -1.30900e+13   124  -1.30900e+13      Cuts: 45     1766    0.00%
*     0+    0                      -1.30900e+13  -1.30900e+13             0.00%
*     0+    0                      -1.30900e+13  -1.30900e+13             0.00%
*     0+    0                      -1.30900e+13  -1.30900e+13             0.00%

Repeating presolve.
Tried aggregator 2 times.
MIP Presolve eliminated 1803 rows and 3811 columns.
MIP Presolve modified 13 coefficients.
Aggregator did 487 substitutions.
Reduced MIP has 925 rows, 2464 columns, and 8456 nonzeros.
Reduced MIP has 2464 binaries, 0 generals, 0 SOSs, and 0 indicators.
Presolve time = 0.03 sec. (32.67 ticks)
Probing time = 0.00 sec. (3.22 ticks)
Tried aggregator 1 time.
Detecting symmetries...
Reduced MIP has 925 rows, 2464 columns, and 8456 nonzeros.
Reduced MIP has 2464 binaries, 0 generals, 0 SOSs, and 0 indicators.
Presolve time = 0.01 sec. (6.05 ticks)
Represolve time = 0.05 sec. (56.61 ticks)
Probing time = 0.00 sec. (3.17 ticks)
Clique table members: 5923.
MIP emphasis: balance optimality and feasibility.
MIP search method: dynamic search.
Parallel mode: opportunistic, using up to 40 threads.
Root relaxation solution time = 0.05 sec. (27.58 ticks)

        Nodes                                         Cuts/
   Node  Left     Objective  IInf  Best Integer    Best Bound    ItCnt     Gap

*     0+    0                      -1.30900e+13  -1.30900e+13             0.00%
      0     0  -1.30900e+13    52  -1.30900e+13  -1.30900e+13     2581    0.00%
      0     0  -1.30900e+13    82  -1.30900e+13      Cuts: 55     2684    0.00%
      0     0  -1.30900e+13   120  -1.30900e+13      Cuts: 35     2836    0.00%
      0     2  -1.30900e+13   120  -1.30900e+13  -1.30900e+13     2836    0.00%
Elapsed time = 1.62 sec. (998.93 ticks, tree = 0.02 MB, solutions = 10)

Clique cuts applied:  22
Cover cuts applied:  234
Mixed integer rounding cuts applied:  6
Zero-half cuts applied:  6
Lift and project cuts applied:  14
Gomory fractional cuts applied:  15

Root node processing (before b&c):
  Real time             =    1.37 sec. (999.25 ticks)
Parallel b&c, 40 threads:
  Real time             =    0.96 sec. (197.99 ticks)
  Sync time (average)   =    0.51 sec.
  Wait time (average)   =    0.00 sec.
                          ------------
Total (root+branch&cut) =    2.33 sec. (1197.24 ticks)

Solution pool: 15 solutions saved.

MIP - Integer optimal solution:  Objective = -1.3089999990e+13
Solution time =    2.38 sec.  Iterations = 51973  Nodes = 2119
Deterministic time = 1197.27 ticks  (502.88 ticks/sec)

CPLEX> Solution 'p16' written to file 'ee.sol'.
CPLEX> 